qbf_easy_train/easy_374_SAT.qdimacs
p cnf 34 93
a 8 19 15 0
e 1 2 3 4 5 6 7 9 10 11 12 13 14 16 17 18 20 21 22 23 24 25 26 27 28 29 30 31 32 33 34 0
-3 -1 0
-3 -2 0
1 2 3 0
-5 -4 0
-5 -2 0
4 2 5 0
-6 -3 0
-6 -5 0
3 5 6 0
-9 -7 0
-9 8 0
7 -8 9 0
-11 -2 0
-11 -10 0
2 10 11 0
12 9 0
12 11 0
-9 -11 -12 0
2 10 -14 0
-2 -10 -14 0
2 -10 14 0
-2 10 14 0
-15 -13 0
-15 -14 0
13 14 15 0
-12 15 -16 0
12 -15 -16 0
-12 -15 16 0
12 15 16 0
18 -17 0
18 -4 0
17 4 -18 0
-16 -18 -19 0
16 18 -19 0
-16 18 19 0
16 -18 19 0
6 19 -20 0
-6 -19 -20 0
6 -19 20 0
-6 19 20 0
13 -5 -21 0
-13 5 -21 0
13 5 21 0
-13 -5 21 0
2 -5 -22 0
-2 5 -22 0
2 5 22 0
-2 -5 22 0
21 -22 -23 0
-21 22 -23 0
21 22 23 0
-21 -22 23 0
-24 13 0
-24 -10 0
-13 10 24 0
-25 4 0
-25 -4 0
-26 24 0
-26 25 0
-24 -25 26 0
27 23 0
27 -26 0
-23 26 -27 0
28 -10 0
28 4 0
10 -4 -28 0
-29 -27 0
-29 -28 0
27 28 29 0
-30 5 0
-30 24 0
-5 -24 30 0
31 25 0
31 24 0
-25 -24 -31 0
-32 -30 0
-32 31 0
30 -31 32 0
-33 -29 0
-33 -32 0
29 32 33 0
34 20 0
34 33 0
-20 -33 -34 0
-18 -8 21 19 -9 25 20 0
10 -23 -16 -25 3 0
22 -3 29 0
27 -30 10 -14 -28 -7 0
-3 21 -18 15 -33 7 -13 0
-1 -21 -18 -23 -27 0
-5 6 -31 0
-28 -3 12 -18 26 0
34 0
