sat_easy_train/easy_374_SAT.dimacs
p cnf 84 263
-4 -2 0
-4 -3 0
2 3 4 0
5 1 0
5 4 0
-1 -4 -5 0
-8 6 0
-8 7 0
-6 -7 8 0
8 9 -10 0
-8 -9 -10 0
8 -9 10 0
-8 9 10 0
-12 -10 0
-12 11 0
10 -11 12 0
-13 -14 -15 0
13 14 -15 0
-13 14 15 0
13 -14 15 0
-16 -12 0
-16 15 0
12 -15 16 0
18 17 0
18 10 0
-17 -10 -18 0
-9 -18 -19 0
9 18 -19 0
-9 18 19 0
9 -18 19 0
20 -16 0
20 19 0
16 -19 -20 0
21 7 -22 0
-21 -7 -22 0
21 -7 22 0
-21 7 22 0
-15 -22 -23 0
15 22 -23 0
-15 22 23 0
15 -22 23 0
24 -23 0
24 -18 0
23 18 -24 0
-24 -14 -25 0
24 14 -25 0
-24 14 25 0
24 -14 25 0
-26 -25 0
-26 14 0
25 -14 26 0
-28 -27 0
-28 -8 0
27 8 28 0
-18 -28 -29 0
18 28 -29 0
-18 28 29 0
18 -28 29 0
-30 -9 0
-30 29 0
9 -29 30 0
30 -31 -32 0
-30 31 -32 0
30 31 32 0
-30 -31 32 0
33 -26 0
33 32 0
26 -32 -33 0
-34 -20 0
-34 -33 0
20 33 34 0
36 -35 0
36 -35 0
35 -36 0
-36 28 -37 0
36 -28 -37 0
-36 -28 37 0
36 28 37 0
-38 15 0
-38 3 0
-15 -3 38 0
-40 1 0
-40 39 0
-1 -39 40 0
8 -40 -41 0
-8 40 -41 0
8 40 41 0
-8 -40 41 0
-42 -38 0
-42 -41 0
38 41 42 0
43 -37 0
43 -42 0
37 42 -43 0
-44 34 0
-44 43 0
-34 -43 44 0
-45 5 0
-45 -44 0
-5 44 45 0
46 -3 0
46 8 0
3 -8 -46 0
47 2 0
47 -17 0
-2 17 -47 0
48 9 0
48 -47 0
-9 47 -48 0
49 -29 0
49 -48 0
29 48 -49 0
-17 7 -50 0
17 -7 -50 0
-17 -7 50 0
17 7 50 0
-49 50 -51 0
49 -50 -51 0
-49 -50 51 0
49 50 51 0
-52 28 0
-52 -51 0
-28 51 52 0
-53 -24 0
-53 25 0
24 -25 53 0
-54 -52 0
-54 -53 0
52 53 54 0
46 -54 -55 0
-46 54 -55 0
46 54 55 0
-46 -54 55 0
56 -45 0
56 -55 0
45 55 -56 0
13 18 -57 0
-13 -18 -57 0
13 -18 57 0
-13 18 57 0
-17 6 -58 0
17 -6 -58 0
-17 -6 58 0
17 6 58 0
59 -58 0
59 -7 0
58 7 -59 0
-60 -59 0
-60 27 0
59 -27 60 0
-61 -13 0
-61 -50 0
13 50 61 0
-62 -47 0
-62 61 0
47 -61 62 0
-63 -60 0
-63 62 0
60 -62 63 0
-57 63 -64 0
57 -63 -64 0
-57 -63 64 0
57 63 64 0
-65 14 0
-65 31 0
-14 -31 65 0
66 -12 0
66 65 0
12 -65 -66 0
-66 -7 -67 0
66 7 -67 0
-66 7 67 0
66 -7 67 0
68 13 0
68 -67 0
-13 67 -68 0
69 -64 0
69 68 0
64 -68 -69 0
70 -38 0
70 38 0
-71 28 0
-71 -14 0
-28 14 71 0
70 -71 -72 0
-70 71 -72 0
70 71 72 0
-70 -71 72 0
-36 73 -74 0
36 -73 -74 0
-36 -73 74 0
36 73 74 0
72 -74 -75 0
-72 74 -75 0
72 74 75 0
-72 -74 75 0
76 -38 0
76 -49 0
38 49 -76 0
77 75 0
77 76 0
-75 -76 -77 0
38 67 -78 0
-38 -67 -78 0
38 -67 78 0
-38 67 78 0
79 -77 0
79 78 0
77 -78 -79 0
80 8 0
80 17 0
-8 -17 -80 0
-80 36 -81 0
80 -36 -81 0
-80 -36 81 0
80 36 81 0
-79 -81 -82 0
79 81 -82 0
-79 81 82 0
79 -81 82 0
69 82 -83 0
-69 -82 -83 0
69 -82 83 0
-69 82 83 0
56 -83 -84 0
-56 83 -84 0
56 83 84 0
-56 -83 84 0
49 33 -71 -78 40 -27 0
68 -55 82 1 0
-31 -28 0
70 63 -55 -60 0
-78 32 -46 0
-72 82 -23 -65 0
-20 68 0
-7 -80 0
-56 -27 46 0
-46 45 0
-67 -18 21 -73 -11 -53 0
-57 -41 0
-48 -15 -25 12 -51 0
-6 40 0
40 55 33 -23 0
82 -66 -41 0
19 31 0
-45 -17 -68 -40 51 0
57 -67 69 -20 43 -47 0
67 -40 -80 -12 0
-57 2 56 73 0
12 -78 11 27 0
-79 35 22 0
68 -72 1 58 40 0
38 29 25 83 0
8 72 -83 -74 0
31 -72 -70 -54 18 0
-77 47 75 -72 71 0
-30 4 39 -43 -15 80 0
-72 17 57 1 6 0
-33 -24 -45 0
-67 30 9 5 0
-5 29 7 17 14 -2 0
24 -31 47 -67 -35 0
84 0
